(set-info :smt-lib-version 2.6)
(set-info :category "crafted")
(set-logic QF_FF)
(define-sort FF0 () (_ FiniteField 52435875175126190479447740508185965837690552500527637822603658699938581184513))
(declare-fun mul_n45_alt () FF0)
(declare-fun mul_n38_alt () FF0)
(declare-fun mul_n44_alt () FF0)
(declare-fun mul_n41_alt () FF0)
(declare-fun mul_n43_alt () FF0)
(declare-fun mul_n20_alt () FF0)
(declare-fun mul_n12_alt () FF0)
(declare-fun mul_n39_alt () FF0)
(declare-fun mul_n40_alt () FF0)
(declare-fun mul_n22_alt () FF0)
(declare-fun mul_n42_alt () FF0)
(declare-fun mul_n8_alt () FF0)
(declare-fun c_n2_alt () FF0)
(declare-fun mul_n32_alt () FF0)
(declare-fun mul_n17_alt () FF0)
(declare-fun mul_n21_alt () FF0)
(declare-fun mul_n11_alt () FF0)
(declare-fun b_n4_alt () FF0)
(declare-fun mul_n9_alt () FF0)
(declare-fun mul_n37_alt () FF0)
(declare-fun mul_n36_alt () FF0)
(declare-fun mul_n35_alt () FF0)
(declare-fun e_n0_alt () FF0)
(declare-fun mul_n34_alt () FF0)
(declare-fun mul_n27_alt () FF0)
(declare-fun mul_n26_alt () FF0)
(declare-fun mul_n33_alt () FF0)
(declare-fun mul_n19_alt () FF0)
(declare-fun mul_n7_alt () FF0)
(declare-fun d_n1_alt () FF0)
(declare-fun mul_n31_alt () FF0)
(declare-fun mul_n30_alt () FF0)
(declare-fun mul_n29_alt () FF0)
(declare-fun mul_n28_alt () FF0)
(declare-fun f_n5_alt () FF0)
(declare-fun mul_n18_alt () FF0)
(declare-fun mul_n25_alt () FF0)
(declare-fun a_n6_alt () FF0)
(declare-fun mul_n24_alt () FF0)
(declare-fun mul_n10_alt () FF0)
(declare-fun mul_n23_alt () FF0)
(declare-fun mul_n16_alt () FF0)
(declare-fun mul_n15_alt () FF0)
(declare-fun mul_n14_alt () FF0)
(declare-fun mul_n13_alt () FF0)
(declare-fun mul_n45 () FF0)
(declare-fun mul_n38 () FF0)
(declare-fun mul_n44 () FF0)
(declare-fun mul_n41 () FF0)
(declare-fun mul_n43 () FF0)
(declare-fun mul_n20 () FF0)
(declare-fun mul_n12 () FF0)
(declare-fun mul_n39 () FF0)
(declare-fun mul_n40 () FF0)
(declare-fun mul_n22 () FF0)
(declare-fun mul_n42 () FF0)
(declare-fun mul_n8 () FF0)
(declare-fun c_n2 () FF0)
(declare-fun mul_n32 () FF0)
(declare-fun mul_n17 () FF0)
(declare-fun mul_n21 () FF0)
(declare-fun mul_n11 () FF0)
(declare-fun b_n4 () FF0)
(declare-fun mul_n9 () FF0)
(declare-fun mul_n37 () FF0)
(declare-fun mul_n36 () FF0)
(declare-fun mul_n35 () FF0)
(declare-fun e_n0 () FF0)
(declare-fun mul_n34 () FF0)
(declare-fun mul_n27 () FF0)
(declare-fun mul_n26 () FF0)
(declare-fun mul_n33 () FF0)
(declare-fun mul_n19 () FF0)
(declare-fun mul_n7 () FF0)
(declare-fun d_n1 () FF0)
(declare-fun mul_n31 () FF0)
(declare-fun mul_n30 () FF0)
(declare-fun mul_n29 () FF0)
(declare-fun mul_n28 () FF0)
(declare-fun f_n5 () FF0)
(declare-fun mul_n18 () FF0)
(declare-fun mul_n25 () FF0)
(declare-fun a_n6 () FF0)
(declare-fun mul_n24 () FF0)
(declare-fun mul_n10 () FF0)
(declare-fun mul_n23 () FF0)
(declare-fun mul_n16 () FF0)
(declare-fun mul_n15 () FF0)
(declare-fun mul_n14 () FF0)
(declare-fun mul_n13 () FF0)
(declare-fun return_n3_alt () FF0)
(declare-fun return_n3 () FF0)
(assert 
  (let ((let0 mul_n45_alt))
  (let ((let1 mul_n38_alt))
  (let ((let2 mul_n44_alt))
  (let ((let3 (ff.mul let2 let1)))
  (let ((let4 (= let3 let0)))
  (let ((let5 mul_n41_alt))
  (let ((let6 (as ff52435875175126190479447740508185965837690552500527637822603658699938581184512 FF0)))
  (let ((let7 mul_n43_alt))
  (let ((let8 (ff.mul let7 let6)))
  (let ((let9 mul_n20_alt))
  (let ((let10 mul_n12_alt))
  (let ((let11 mul_n39_alt))
  (let ((let12 mul_n40_alt))
  (let ((let13 (ff.mul let12 let6)))
  (let ((let14 (ff.add let13 let11 let10 let9 let8)))
  (let ((let15 (ff.mul let14 let5)))
  (let ((let16 (= let15 let2)))
  (let ((let17 mul_n22_alt))
  (let ((let18 (ff.mul let17 let6)))
  (let ((let19 mul_n42_alt))
  (let ((let20 (ff.add let13 let19 let11 let10 let9 let18)))
  (let ((let21 (as ff1 FF0)))
  (let ((let22 mul_n8_alt))
  (let ((let23 (ff.mul let22 let6)))
  (let ((let24 (ff.add let23 let21)))
  (let ((let25 (ff.mul let24 let20)))
  (let ((let26 (= let25 let7)))
  (let ((let27 c_n2_alt))
  (let ((let28 (ff.mul let27 let6)))
  (let ((let29 (ff.add let28 let17)))
  (let ((let30 mul_n32_alt))
  (let ((let31 (ff.mul let30 let6)))
  (let ((let32 (ff.add let31 let21)))
  (let ((let33 (ff.mul let32 let29)))
  (let ((let34 (= let33 let19)))
  (let ((let35 (ff.add let13 let11 let10 let9)))
  (let ((let36 mul_n17_alt))
  (let ((let37 (ff.mul let36 let35)))
  (let ((let38 (= let37 let5)))
  (let ((let39 (ff.add let9 let11)))
  (let ((let40 (as ff2 FF0)))
  (let ((let41 (ff.mul let10 let40)))
  (let ((let42 (ff.mul let41 let39)))
  (let ((let43 (= let42 let12)))
  (let ((let44 mul_n21_alt))
  (let ((let45 (ff.mul let44 let6)))
  (let ((let46 (ff.mul let9 let6)))
  (let ((let47 (ff.add let46 let45 let21)))
  (let ((let48 mul_n11_alt))
  (let ((let49 b_n4_alt))
  (let ((let50 (ff.mul let49 let6)))
  (let ((let51 (ff.add let50 let28 let48 let21)))
  (let ((let52 (ff.mul let51 let47)))
  (let ((let53 (= let52 let11)))
  (let ((let54 mul_n9_alt))
  (let ((let55 (ff.mul let54 let6)))
  (let ((let56 (ff.add let23 let55 let49 let21)))
  (let ((let57 mul_n37_alt))
  (let ((let58 (ff.mul let57 let56)))
  (let ((let59 (= let58 let1)))
  (let ((let60 (ff.add let50 let21)))
  (let ((let61 mul_n36_alt))
  (let ((let62 (ff.mul let61 let60)))
  (let ((let63 (= let62 let57)))
  (let ((let64 mul_n35_alt))
  (let ((let65 (ff.mul let64 let30)))
  (let ((let66 (= let65 let61)))
  (let ((let67 e_n0_alt))
  (let ((let68 (ff.mul let67 let6)))
  (let ((let69 (ff.add let68 let21)))
  (let ((let70 mul_n34_alt))
  (let ((let71 (ff.mul let70 let69)))
  (let ((let72 (= let71 let64)))
  (let ((let73 mul_n27_alt))
  (let ((let74 mul_n26_alt))
  (let ((let75 (ff.mul let74 let6)))
  (let ((let76 (ff.add let75 let73 let21)))
  (let ((let77 mul_n33_alt))
  (let ((let78 (ff.mul let77 let76)))
  (let ((let79 (= let78 let70)))
  (let ((let80 mul_n19_alt))
  (let ((let81 (ff.mul let80 let6)))
  (let ((let82 (ff.add let81 let21)))
  (let ((let83 (ff.mul let10 let6)))
  (let ((let84 (ff.add let83 let21)))
  (let ((let85 (ff.mul let84 let82)))
  (let ((let86 (= let85 let77)))
  (let ((let87 (ff.add let45 let21)))
  (let ((let88 mul_n7_alt))
  (let ((let89 d_n1_alt))
  (let ((let90 (ff.add let89 let88)))
  (let ((let91 (ff.mul let90 let87)))
  (let ((let92 (= let91 let30)))
  (let ((let93 mul_n31_alt))
  (let ((let94 mul_n30_alt))
  (let ((let95 (ff.add let75 let21)))
  (let ((let96 (ff.mul let95 let94)))
  (let ((let97 (= let96 let93)))
  (let ((let98 mul_n29_alt))
  (let ((let99 (ff.mul let98 let44)))
  (let ((let100 (= let99 let94)))
  (let ((let101 mul_n28_alt))
  (let ((let102 (ff.mul let101 let76)))
  (let ((let103 (= let102 let98)))
  (let ((let104 f_n5_alt))
  (let ((let105 (ff.mul let104 let6)))
  (let ((let106 (ff.add let105 let21)))
  (let ((let107 (ff.mul let24 let106)))
  (let ((let108 (= let107 let101)))
  (let ((let109 (ff.add let22 let74 let50 let54 let6)))
  (let ((let110 (ff.mul let10 let109)))
  (let ((let111 (= let110 let73)))
  (let ((let112 mul_n18_alt))
  (let ((let113 mul_n25_alt))
  (let ((let114 (ff.mul let113 let112)))
  (let ((let115 (= let114 let74)))
  (let ((let116 a_n6_alt))
  (let ((let117 (ff.mul let116 let6)))
  (let ((let118 (ff.add let117 let21)))
  (let ((let119 mul_n24_alt))
  (let ((let120 (ff.mul let119 let118)))
  (let ((let121 (= let120 let113)))
  (let ((let122 mul_n10_alt))
  (let ((let123 (ff.mul let122 let6)))
  (let ((let124 (ff.add let104 let123 let116)))
  (let ((let125 mul_n23_alt))
  (let ((let126 (ff.mul let125 let124)))
  (let ((let127 (= let126 let119)))
  (let ((let128 (ff.add let46 let21)))
  (let ((let129 (ff.mul let17 let128)))
  (let ((let130 (= let129 let125)))
  (let ((let131 (ff.mul let89 let6)))
  (let ((let132 (ff.add let131 let21)))
  (let ((let133 (ff.mul let132 let69)))
  (let ((let134 (= let133 let17)))
  (let ((let135 (ff.mul let128 let56)))
  (let ((let136 (= let135 let44)))
  (let ((let137 (ff.mul let67 let82)))
  (let ((let138 (= let137 let9)))
  (let ((let139 (ff.mul let36 let6)))
  (let ((let140 (ff.add let139 let21)))
  (let ((let141 (ff.mul let140 let112)))
  (let ((let142 (= let141 let80)))
  (let ((let143 (ff.add let28 let21)))
  (let ((let144 (ff.mul let36 let143)))
  (let ((let145 (= let144 let112)))
  (let ((let146 (ff.mul let88 let6)))
  (let ((let147 (ff.add let131 let146 let21)))
  (let ((let148 mul_n16_alt))
  (let ((let149 (ff.mul let148 let147)))
  (let ((let150 (= let149 let36)))
  (let ((let151 mul_n15_alt))
  (let ((let152 (ff.mul let151 let69)))
  (let ((let153 (= let152 let148)))
  (let ((let154 mul_n14_alt))
  (let ((let155 (ff.mul let154 let124)))
  (let ((let156 (= let155 let151)))
  (let ((let157 mul_n13_alt))
  (let ((let158 (ff.mul let157 let132)))
  (let ((let159 (= let158 let154)))
  (let ((let160 (ff.mul let48 let6)))
  (let ((let161 (ff.add let49 let27 let160)))
  (let ((let162 (ff.mul let161 let10)))
  (let ((let163 (= let162 let157)))
  (let ((let164 (ff.mul let124 let161)))
  (let ((let165 (= let164 let10)))
  (let ((let166 (ff.mul let27 let40)))
  (let ((let167 (ff.mul let166 let49)))
  (let ((let168 (= let167 let48)))
  (let ((let169 (ff.mul let116 let40)))
  (let ((let170 (ff.mul let169 let104)))
  (let ((let171 (= let170 let122)))
  (let ((let172 (as ff52435875175126190479447740508185965837690552500527637822603658699938581184511 FF0)))
  (let ((let173 (ff.mul let22 let172)))
  (let ((let174 (ff.add let173 let40)))
  (let ((let175 (ff.mul let174 let49)))
  (let ((let176 (= let175 let54)))
  (let ((let177 (ff.mul let147 let90)))
  (let ((let178 (= let177 let22)))
  (let ((let179 (ff.add let104 let131)))
  (let ((let180 (ff.mul let116 let179)))
  (let ((let181 (= let180 let88)))
  (let ((let182 (and let181 let178 let176 let171 let168 let165 let163 let159 let156 let153 let150 let145 let142 let138 let136 let134 let130 let127 let121 let115 let111 let108 let103 let100 let97 let92 let86 let79 let72 let66 let63 let59 let53 let43 let38 let34 let26 let16 let4)))
  (let ((let183 mul_n45))
  (let ((let184 mul_n38))
  (let ((let185 mul_n44))
  (let ((let186 (ff.mul let185 let184)))
  (let ((let187 (= let186 let183)))
  (let ((let188 mul_n41))
  (let ((let189 mul_n43))
  (let ((let190 (ff.mul let189 let6)))
  (let ((let191 mul_n20))
  (let ((let192 mul_n12))
  (let ((let193 mul_n39))
  (let ((let194 mul_n40))
  (let ((let195 (ff.mul let194 let6)))
  (let ((let196 (ff.add let195 let193 let192 let191 let190)))
  (let ((let197 (ff.mul let196 let188)))
  (let ((let198 (= let197 let185)))
  (let ((let199 mul_n22))
  (let ((let200 (ff.mul let199 let6)))
  (let ((let201 mul_n42))
  (let ((let202 (ff.add let195 let201 let193 let192 let191 let200)))
  (let ((let203 mul_n8))
  (let ((let204 (ff.mul let203 let6)))
  (let ((let205 (ff.add let204 let21)))
  (let ((let206 (ff.mul let205 let202)))
  (let ((let207 (= let206 let189)))
  (let ((let208 c_n2))
  (let ((let209 (ff.mul let208 let6)))
  (let ((let210 (ff.add let209 let199)))
  (let ((let211 mul_n32))
  (let ((let212 (ff.mul let211 let6)))
  (let ((let213 (ff.add let212 let21)))
  (let ((let214 (ff.mul let213 let210)))
  (let ((let215 (= let214 let201)))
  (let ((let216 (ff.add let195 let193 let192 let191)))
  (let ((let217 mul_n17))
  (let ((let218 (ff.mul let217 let216)))
  (let ((let219 (= let218 let188)))
  (let ((let220 (ff.add let191 let193)))
  (let ((let221 (ff.mul let192 let40)))
  (let ((let222 (ff.mul let221 let220)))
  (let ((let223 (= let222 let194)))
  (let ((let224 mul_n21))
  (let ((let225 (ff.mul let224 let6)))
  (let ((let226 (ff.mul let191 let6)))
  (let ((let227 (ff.add let226 let225 let21)))
  (let ((let228 mul_n11))
  (let ((let229 b_n4))
  (let ((let230 (ff.mul let229 let6)))
  (let ((let231 (ff.add let230 let209 let228 let21)))
  (let ((let232 (ff.mul let231 let227)))
  (let ((let233 (= let232 let193)))
  (let ((let234 mul_n9))
  (let ((let235 (ff.mul let234 let6)))
  (let ((let236 (ff.add let204 let235 let229 let21)))
  (let ((let237 mul_n37))
  (let ((let238 (ff.mul let237 let236)))
  (let ((let239 (= let238 let184)))
  (let ((let240 (ff.add let230 let21)))
  (let ((let241 mul_n36))
  (let ((let242 (ff.mul let241 let240)))
  (let ((let243 (= let242 let237)))
  (let ((let244 mul_n35))
  (let ((let245 (ff.mul let244 let211)))
  (let ((let246 (= let245 let241)))
  (let ((let247 e_n0))
  (let ((let248 (ff.mul let247 let6)))
  (let ((let249 (ff.add let248 let21)))
  (let ((let250 mul_n34))
  (let ((let251 (ff.mul let250 let249)))
  (let ((let252 (= let251 let244)))
  (let ((let253 mul_n27))
  (let ((let254 mul_n26))
  (let ((let255 (ff.mul let254 let6)))
  (let ((let256 (ff.add let255 let253 let21)))
  (let ((let257 mul_n33))
  (let ((let258 (ff.mul let257 let256)))
  (let ((let259 (= let258 let250)))
  (let ((let260 mul_n19))
  (let ((let261 (ff.mul let260 let6)))
  (let ((let262 (ff.add let261 let21)))
  (let ((let263 (ff.mul let192 let6)))
  (let ((let264 (ff.add let263 let21)))
  (let ((let265 (ff.mul let264 let262)))
  (let ((let266 (= let265 let257)))
  (let ((let267 (ff.add let225 let21)))
  (let ((let268 mul_n7))
  (let ((let269 d_n1))
  (let ((let270 (ff.add let269 let268)))
  (let ((let271 (ff.mul let270 let267)))
  (let ((let272 (= let271 let211)))
  (let ((let273 mul_n31))
  (let ((let274 mul_n30))
  (let ((let275 (ff.add let255 let21)))
  (let ((let276 (ff.mul let275 let274)))
  (let ((let277 (= let276 let273)))
  (let ((let278 mul_n29))
  (let ((let279 (ff.mul let278 let224)))
  (let ((let280 (= let279 let274)))
  (let ((let281 mul_n28))
  (let ((let282 (ff.mul let281 let256)))
  (let ((let283 (= let282 let278)))
  (let ((let284 f_n5))
  (let ((let285 (ff.mul let284 let6)))
  (let ((let286 (ff.add let285 let21)))
  (let ((let287 (ff.mul let205 let286)))
  (let ((let288 (= let287 let281)))
  (let ((let289 (ff.add let203 let254 let230 let234 let6)))
  (let ((let290 (ff.mul let192 let289)))
  (let ((let291 (= let290 let253)))
  (let ((let292 mul_n18))
  (let ((let293 mul_n25))
  (let ((let294 (ff.mul let293 let292)))
  (let ((let295 (= let294 let254)))
  (let ((let296 a_n6))
  (let ((let297 (ff.mul let296 let6)))
  (let ((let298 (ff.add let297 let21)))
  (let ((let299 mul_n24))
  (let ((let300 (ff.mul let299 let298)))
  (let ((let301 (= let300 let293)))
  (let ((let302 mul_n10))
  (let ((let303 (ff.mul let302 let6)))
  (let ((let304 (ff.add let284 let303 let296)))
  (let ((let305 mul_n23))
  (let ((let306 (ff.mul let305 let304)))
  (let ((let307 (= let306 let299)))
  (let ((let308 (ff.add let226 let21)))
  (let ((let309 (ff.mul let199 let308)))
  (let ((let310 (= let309 let305)))
  (let ((let311 (ff.mul let269 let6)))
  (let ((let312 (ff.add let311 let21)))
  (let ((let313 (ff.mul let312 let249)))
  (let ((let314 (= let313 let199)))
  (let ((let315 (ff.mul let308 let236)))
  (let ((let316 (= let315 let224)))
  (let ((let317 (ff.mul let247 let262)))
  (let ((let318 (= let317 let191)))
  (let ((let319 (ff.mul let217 let6)))
  (let ((let320 (ff.add let319 let21)))
  (let ((let321 (ff.mul let320 let292)))
  (let ((let322 (= let321 let260)))
  (let ((let323 (ff.add let209 let21)))
  (let ((let324 (ff.mul let217 let323)))
  (let ((let325 (= let324 let292)))
  (let ((let326 (ff.mul let268 let6)))
  (let ((let327 (ff.add let311 let326 let21)))
  (let ((let328 mul_n16))
  (let ((let329 (ff.mul let328 let327)))
  (let ((let330 (= let329 let217)))
  (let ((let331 mul_n15))
  (let ((let332 (ff.mul let331 let249)))
  (let ((let333 (= let332 let328)))
  (let ((let334 mul_n14))
  (let ((let335 (ff.mul let334 let304)))
  (let ((let336 (= let335 let331)))
  (let ((let337 mul_n13))
  (let ((let338 (ff.mul let337 let312)))
  (let ((let339 (= let338 let334)))
  (let ((let340 (ff.mul let228 let6)))
  (let ((let341 (ff.add let229 let208 let340)))
  (let ((let342 (ff.mul let341 let192)))
  (let ((let343 (= let342 let337)))
  (let ((let344 (ff.mul let304 let341)))
  (let ((let345 (= let344 let192)))
  (let ((let346 (ff.mul let208 let40)))
  (let ((let347 (ff.mul let346 let229)))
  (let ((let348 (= let347 let228)))
  (let ((let349 (ff.mul let296 let40)))
  (let ((let350 (ff.mul let349 let284)))
  (let ((let351 (= let350 let302)))
  (let ((let352 (ff.mul let203 let172)))
  (let ((let353 (ff.add let352 let40)))
  (let ((let354 (ff.mul let353 let229)))
  (let ((let355 (= let354 let234)))
  (let ((let356 (ff.mul let327 let270)))
  (let ((let357 (= let356 let203)))
  (let ((let358 (ff.add let284 let311)))
  (let ((let359 (ff.mul let296 let358)))
  (let ((let360 (= let359 let268)))
  (let ((let361 (and let360 let357 let355 let351 let348 let345 let343 let339 let336 let333 let330 let325 let322 let318 let316 let314 let310 let307 let301 let295 let291 let288 let283 let280 let277 let272 let266 let259 let252 let246 let243 let239 let233 let223 let219 let215 let207 let198 let187)))
  (let ((let362 return_n3_alt))
  (let ((let363 return_n3))
  (let ((let364 (= let363 let362)))
  (let ((let365 (not let364)))
  (let ((let366 (= let229 let49)))
  (let ((let367 (= let296 let116)))
  (let ((let368 (= let208 let27)))
  (let ((let369 (= let269 let89)))
  (let ((let370 (= let247 let67)))
  (let ((let371 (= let284 let104)))
  (let ((let372 (and let371 let370 let369 let368 let367 let366)))
  (let ((let373 (and let372 let365 let361 let182)))
  let373
))))))))))))))))))))))))))))))))))))))))))))))))))))))))))))))))))))))))))))))))))))))))))))))))))))))))))))))))))))))))))))))))))))))))))))))))))))))))))))))))))))))))))))))))))))))))))))))))))))))))))))))))))))))))))))))))))))))))))))))))))))))))))))))))))))))))))))))))))))))))))))))))))))))))))))))))))))))))))))))))))))))))))))))))))))))))))))))))))))))))))))))))))))))
)
(check-sat)
